*NAME:         food2   - maximization !!!!!
*ROWS:         137
*COLUMNS:      126
*INTEGER:       30
*NONZERO:      426
*BEST SOLN: -100278.70 (opt)
*LP SOLN:   -107512.96
*
NAME          food2
ROWS
 L  R0001
 L  R0002
 L  R0003
 L  R0004
 L  R0005
 L  R0006
 L  R0007
 L  R0008
 L  R0009
 L  R0010
 L  R0011
 L  R0012
 L  R0013
 L  R0014
 L  R0015
 L  R0016
 L  R0017
 L  R0018
 G  R0019
 G  R0020
 G  R0021
 G  R0022
 G  R0023
 G  R0024
 E  R0025
 E  R0026
 E  R0027
 E  R0028
 E  R0029
 E  R0030
 E  R0031
 E  R0032
 E  R0033
 E  R0034
 E  R0035
 E  R0036
 E  R0037
 E  R0038
 E  R0039
 E  R0040
 E  R0041
 E  R0042
 E  R0043
 E  R0044
 E  R0045
 E  R0046
 E  R0047
 E  R0048
 E  R0049
 E  R0050
 E  R0051
 E  R0052
 E  R0053
 E  R0054
 E  R0055
 E  R0056
 E  R0057
 E  R0058
 E  R0059
 E  R0060
 E  R0061
 E  R0062
 E  R0063
 E  R0064
 E  R0065
 L  R0066
 L  R0067
 L  R0068
 L  R0069
 L  R0070
 L  R0071
 L  R0072
 L  R0073
 L  R0074
 L  R0075
 L  R0076
 L  R0077
 L  R0078
 L  R0079
 L  R0080
 L  R0081
 L  R0082
 L  R0083
 L  R0084
 L  R0085
 L  R0086
 L  R0087
 L  R0088
 L  R0089
 L  R0090
 L  R0091
 L  R0092
 L  R0093
 L  R0094
 L  R0095
 G  R0096
 G  R0097
 G  R0098
 G  R0099
 G  R0100
 G  R0101
 G  R0102
 G  R0103
 G  R0104
 G  R0105
 G  R0106
 G  R0107
 G  R0108
 G  R0109
 G  R0110
 G  R0111
 G  R0112
 G  R0113
 G  R0114
 G  R0115
 G  R0116
 G  R0117
 G  R0118
 G  R0119
 G  R0120
 G  R0121
 G  R0122
 G  R0123
 G  R0124
 G  R0125
 L  R0126
 L  R0127
 L  R0128
 L  R0129
 L  R0130
 L  R0131
 L  R0132
 L  R0133
 L  R0134
 L  R0135
 L  R0136
 L  R0137
 N  R0138
COLUMNS
    C0001     R0031     1
    C0001     R0138     -130
    C0002     R0032     1
    C0002     R0138     -110
    C0003     R0033     1
    C0003     R0138     -115
    C0004     R0034     1
    C0004     R0138     -110
    C0005     R0035     1
    C0005     R0138     -120
    C0006     R0036     1
    C0006     R0138     -110
    C0007     R0037     1
    C0007     R0138     -90
    C0008     R0038     1
    C0008     R0138     -115
    C0009     R0039     1
    C0009     R0138     -130
    C0010     R0040     1
    C0010     R0138     -130
    C0011     R0041     1
    C0011     R0138     -130
    C0012     R0042     1
    C0012     R0138     -100
    C0013     R0043     1
    C0013     R0138     -95
    C0014     R0044     1
    C0014     R0138     -110
    C0015     R0045     1
    C0015     R0138     -140
    C0016     R0046     1
    C0016     R0138     -120
    C0017     R0047     1
    C0017     R0138     -120
    C0018     R0048     1
    C0018     R0138     -125
    C0019     R0049     1
    C0019     R0138     -120
    C0020     R0050     1
    C0020     R0138     -110
    C0021     R0051     1
    C0021     R0138     -150
    C0022     R0052     1
    C0022     R0138     -110
    C0023     R0053     1
    C0023     R0138     -105
    C0024     R0054     1
    C0024     R0138     -100
    C0025     R0055     1
    C0025     R0138     -120
    C0026     R0056     1
    C0026     R0138     -140
    C0027     R0057     1
    C0027     R0138     -80
    C0028     R0058     1
    C0028     R0138     -135
    C0029     R0059     1
    C0029     R0138     -90
    C0030     R0060     1
    C0030     R0138     -100
    C0031     R0031     -1
    C0031     R0036     1
    C0031     R0138     -5
    C0032     R0032     -1
    C0032     R0037     1
    C0032     R0138     -5
    C0033     R0033     -1
    C0033     R0038     1
    C0033     R0138     -5
    C0034     R0034     -1
    C0034     R0039     1
    C0034     R0138     -5
    C0035     R0035     -1
    C0035     R0040     1
    C0035     R0138     -5
    C0036     R0036     -1
    C0036     R0041     1
    C0036     R0138     -5
    C0037     R0037     -1
    C0037     R0042     1
    C0037     R0138     -5
    C0038     R0038     -1
    C0038     R0043     1
    C0038     R0138     -5
    C0039     R0039     -1
    C0039     R0044     1
    C0039     R0138     -5
    C0040     R0040     -1
    C0040     R0045     1
    C0040     R0138     -5
    C0041     R0041     -1
    C0041     R0046     1
    C0041     R0138     -5
    C0042     R0042     -1
    C0042     R0047     1
    C0042     R0138     -5
    C0043     R0043     -1
    C0043     R0048     1
    C0043     R0138     -5
    C0044     R0044     -1
    C0044     R0049     1
    C0044     R0138     -5
    C0045     R0045     -1
    C0045     R0050     1
    C0045     R0138     -5
    C0046     R0046     -1
    C0046     R0051     1
    C0046     R0138     -5
    C0047     R0047     -1
    C0047     R0052     1
    C0047     R0138     -5
    C0048     R0048     -1
    C0048     R0053     1
    C0048     R0138     -5
    C0049     R0049     -1
    C0049     R0054     1
    C0049     R0138     -5
    C0050     R0050     -1
    C0050     R0055     1
    C0050     R0138     -5
    C0051     R0051     -1
    C0051     R0056     1
    C0051     R0138     -5
    C0052     R0052     -1
    C0052     R0057     1
    C0052     R0138     -5
    C0053     R0053     -1
    C0053     R0058     1
    C0053     R0138     -5
    C0054     R0054     -1
    C0054     R0059     1
    C0054     R0138     -5
    C0055     R0055     -1
    C0055     R0060     1
    C0055     R0138     -5
    C0056     R0056     -1
    C0056     R0061     1
    C0056     R0138     -5
    C0057     R0057     -1
    C0057     R0062     1
    C0057     R0138     -5
    C0058     R0058     -1
    C0058     R0063     1
    C0058     R0138     -5
    C0059     R0059     -1
    C0059     R0064     1
    C0059     R0138     -5
    C0060     R0060     -1
    C0060     R0065     1
    C0060     R0138     -5
    C0061     R0007     1
    C0061     R0013     2
    C0061     R0019     2
    C0061     R0025     1
    C0061     R0031     -1
    C0061     R0066     1
    C0061     R0096     1
    C0062     R0007     1
    C0062     R0013     4.2
    C0062     R0019     4.2
    C0062     R0025     1
    C0062     R0032     -1
    C0062     R0067     1
    C0062     R0097     1
    C0063     R0007     1
    C0063     R0013     5
    C0063     R0019     5
    C0063     R0025     1
    C0063     R0033     -1
    C0063     R0068     1
    C0063     R0098     1
    C0064     R0001     1
    C0064     R0013     8.8
    C0064     R0019     8.8
    C0064     R0025     1
    C0064     R0034     -1
    C0064     R0069     1
    C0064     R0099     1
    C0065     R0001     1
    C0065     R0013     6.1
    C0065     R0019     6.1
    C0065     R0025     1
    C0065     R0035     -1
    C0065     R0070     1
    C0065     R0100     1
    C0066     R0008     1
    C0066     R0014     2
    C0066     R0020     2
    C0066     R0026     1
    C0066     R0036     -1
    C0066     R0071     1
    C0066     R0101     1
    C0067     R0008     1
    C0067     R0014     4.2
    C0067     R0020     4.2
    C0067     R0026     1
    C0067     R0037     -1
    C0067     R0072     1
    C0067     R0102     1
    C0068     R0008     1
    C0068     R0014     5
    C0068     R0020     5
    C0068     R0026     1
    C0068     R0038     -1
    C0068     R0073     1
    C0068     R0103     1
    C0069     R0002     1
    C0069     R0014     8.8
    C0069     R0020     8.8
    C0069     R0026     1
    C0069     R0039     -1
    C0069     R0074     1
    C0069     R0104     1
    C0070     R0002     1
    C0070     R0014     6.1
    C0070     R0020     6.1
    C0070     R0026     1
    C0070     R0040     -1
    C0070     R0075     1
    C0070     R0105     1
    C0071     R0009     1
    C0071     R0015     2
    C0071     R0021     2
    C0071     R0027     1
    C0071     R0041     -1
    C0071     R0076     1
    C0071     R0106     1
    C0072     R0009     1
    C0072     R0015     4.2
    C0072     R0021     4.2
    C0072     R0027     1
    C0072     R0042     -1
    C0072     R0077     1
    C0072     R0107     1
    C0073     R0009     1
    C0073     R0015     5
    C0073     R0021     5
    C0073     R0027     1
    C0073     R0043     -1
    C0073     R0078     1
    C0073     R0108     1
    C0074     R0003     1
    C0074     R0015     8.8
    C0074     R0021     8.8
    C0074     R0027     1
    C0074     R0044     -1
    C0074     R0079     1
    C0074     R0109     1
    C0075     R0003     1
    C0075     R0015     6.1
    C0075     R0021     6.1
    C0075     R0027     1
    C0075     R0045     -1
    C0075     R0080     1
    C0075     R0110     1
    C0076     R0010     1
    C0076     R0016     2
    C0076     R0022     2
    C0076     R0028     1
    C0076     R0046     -1
    C0076     R0081     1
    C0076     R0111     1
    C0077     R0010     1
    C0077     R0016     4.2
    C0077     R0022     4.2
    C0077     R0028     1
    C0077     R0047     -1
    C0077     R0082     1
    C0077     R0112     1
    C0078     R0010     1
    C0078     R0016     5
    C0078     R0022     5
    C0078     R0028     1
    C0078     R0048     -1
    C0078     R0083     1
    C0078     R0113     1
    C0079     R0004     1
    C0079     R0016     8.8
    C0079     R0022     8.8
    C0079     R0028     1
    C0079     R0049     -1
    C0079     R0084     1
    C0079     R0114     1
    C0080     R0004     1
    C0080     R0016     6.1
    C0080     R0022     6.1
    C0080     R0028     1
    C0080     R0050     -1
    C0080     R0085     1
    C0080     R0115     1
    C0081     R0011     1
    C0081     R0017     2
    C0081     R0023     2
    C0081     R0029     1
    C0081     R0051     -1
    C0081     R0086     1
    C0081     R0116     1
    C0082     R0011     1
    C0082     R0017     4.2
    C0082     R0023     4.2
    C0082     R0029     1
    C0082     R0052     -1
    C0082     R0087     1
    C0082     R0117     1
    C0083     R0011     1
    C0083     R0017     5
    C0083     R0023     5
    C0083     R0029     1
    C0083     R0053     -1
    C0083     R0088     1
    C0083     R0118     1
    C0084     R0005     1
    C0084     R0017     8.8
    C0084     R0023     8.8
    C0084     R0029     1
    C0084     R0054     -1
    C0084     R0089     1
    C0084     R0119     1
    C0085     R0005     1
    C0085     R0017     6.1
    C0085     R0023     6.1
    C0085     R0029     1
    C0085     R0055     -1
    C0085     R0090     1
    C0085     R0120     1
    C0086     R0012     1
    C0086     R0018     2
    C0086     R0024     2
    C0086     R0030     1
    C0086     R0056     -1
    C0086     R0091     1
    C0086     R0121     1
    C0087     R0012     1
    C0087     R0018     4.2
    C0087     R0024     4.2
    C0087     R0030     1
    C0087     R0057     -1
    C0087     R0092     1
    C0087     R0122     1
    C0088     R0012     1
    C0088     R0018     5
    C0088     R0024     5
    C0088     R0030     1
    C0088     R0058     -1
    C0088     R0093     1
    C0088     R0123     1
    C0089     R0006     1
    C0089     R0018     8.8
    C0089     R0024     8.8
    C0089     R0030     1
    C0089     R0059     -1
    C0089     R0094     1
    C0089     R0124     1
    C0090     R0006     1
    C0090     R0018     6.1
    C0090     R0024     6.1
    C0090     R0030     1
    C0090     R0060     -1
    C0090     R0095     1
    C0090     R0125     1
    C0091     R0013     -6
    C0091     R0019     -3
    C0091     R0025     -1
    C0091     R0138     150
    C0092     R0014     -6
    C0092     R0020     -3
    C0092     R0026     -1
    C0092     R0138     150
    C0093     R0015     -6
    C0093     R0021     -3
    C0093     R0027     -1
    C0093     R0138     150
    C0094     R0016     -6
    C0094     R0022     -3
    C0094     R0028     -1
    C0094     R0138     150
    C0095     R0017     -6
    C0095     R0023     -3
    C0095     R0029     -1
    C0095     R0138     150
    C0096     R0018     -6
    C0096     R0024     -3
    C0096     R0030     -1
    C0096     R0138     150
    INT1      'MARKER'                 'INTORG'
    C0097     R0066     -250
    C0097     R0096     -20
    C0097     R0126     1
    C0098     R0067     -250
    C0098     R0097     -20
    C0098     R0126     1
    C0099     R0068     -250
    C0099     R0098     -20
    C0099     R0126     1
    C0099     R0132     -2
    C0100     R0069     -200
    C0100     R0099     -20
    C0100     R0126     1
    C0100     R0132     1
    C0101     R0070     -200
    C0101     R0100     -20
    C0101     R0126     1
    C0101     R0132     1
    C0102     R0071     -250
    C0102     R0101     -20
    C0102     R0127     1
    C0103     R0072     -250
    C0103     R0102     -20
    C0103     R0127     1
    C0104     R0073     -250
    C0104     R0103     -20
    C0104     R0127     1
    C0104     R0133     -2
    C0105     R0074     -200
    C0105     R0104     -20
    C0105     R0127     1
    C0105     R0133     1
    C0106     R0075     -200
    C0106     R0105     -20
    C0106     R0127     1
    C0106     R0133     1
    C0107     R0076     -250
    C0107     R0106     -20
    C0107     R0128     1
    C0108     R0077     -250
    C0108     R0107     -20
    C0108     R0128     1
    C0109     R0078     -250
    C0109     R0108     -20
    C0109     R0128     1
    C0109     R0134     -2
    C0110     R0079     -200
    C0110     R0109     -20
    C0110     R0128     1
    C0110     R0134     1
    C0111     R0080     -200
    C0111     R0110     -20
    C0111     R0128     1
    C0111     R0134     1
    C0112     R0081     -250
    C0112     R0111     -20
    C0112     R0129     1
    C0113     R0082     -250
    C0113     R0112     -20
    C0113     R0129     1
    C0114     R0083     -250
    C0114     R0113     -20
    C0114     R0129     1
    C0114     R0135     -2
    C0115     R0084     -200
    C0115     R0114     -20
    C0115     R0129     1
    C0115     R0135     1
    C0116     R0085     -200
    C0116     R0115     -20
    C0116     R0129     1
    C0116     R0135     1
    C0117     R0086     -250
    C0117     R0116     -20
    C0117     R0130     1
    C0118     R0087     -250
    C0118     R0117     -20
    C0118     R0130     1
    C0119     R0088     -250
    C0119     R0118     -20
    C0119     R0130     1
    C0119     R0136     -2
    C0120     R0089     -200
    C0120     R0119     -20
    C0120     R0130     1
    C0120     R0136     1
    C0121     R0090     -200
    C0121     R0120     -20
    C0121     R0130     1
    C0121     R0136     1
    C0122     R0091     -250
    C0122     R0121     -20
    C0122     R0131     1
    C0123     R0092     -250
    C0123     R0122     -20
    C0123     R0131     1
    C0124     R0093     -250
    C0124     R0123     -20
    C0124     R0131     1
    C0124     R0137     -2
    C0125     R0094     -200
    C0125     R0124     -20
    C0125     R0131     1
    C0125     R0137     1
    C0126     R0095     -200
    C0126     R0125     -20
    C0126     R0131     1
    C0126     R0137     1
    INT1END   'MARKER'                 'INTEND'
RHS
    B         R0001     200
    B         R0002     200
    B         R0003     200
    B         R0004     200
    B         R0005     200
    B         R0006     200
    B         R0007     250
    B         R0008     250
    B         R0009     250
    B         R0010     250
    B         R0011     250
    B         R0012     250
    B         R0031     -500
    B         R0032     -500
    B         R0033     -500
    B         R0034     -500
    B         R0035     -500
    B         R0061     500
    B         R0062     500
    B         R0063     500
    B         R0064     500
    B         R0065     500
    B         R0126     3
    B         R0127     3
    B         R0128     3
    B         R0129     3
    B         R0130     3
    B         R0131     3
BOUNDS
 UP BOUND     C0031     1000
 UP BOUND     C0032     1000
 UP BOUND     C0033     1000
 UP BOUND     C0034     1000
 UP BOUND     C0035     1000
 UP BOUND     C0036     1000
 UP BOUND     C0037     1000
 UP BOUND     C0038     1000
 UP BOUND     C0039     1000
 UP BOUND     C0040     1000
 UP BOUND     C0041     1000
 UP BOUND     C0042     1000
 UP BOUND     C0043     1000
 UP BOUND     C0044     1000
 UP BOUND     C0045     1000
 UP BOUND     C0046     1000
 UP BOUND     C0047     1000
 UP BOUND     C0048     1000
 UP BOUND     C0049     1000
 UP BOUND     C0050     1000
 UP BOUND     C0051     1000
 UP BOUND     C0052     1000
 UP BOUND     C0053     1000
 UP BOUND     C0054     1000
 UP BOUND     C0055     1000
 UP BOUND     C0056     1000
 UP BOUND     C0057     1000
 UP BOUND     C0058     1000
 UP BOUND     C0059     1000
 UP BOUND     C0060     1000
 UP BOUND     C0097     1
 UP BOUND     C0098     1
 UP BOUND     C0099     1
 UP BOUND     C0100     1
 UP BOUND     C0101     1
 UP BOUND     C0102     1
 UP BOUND     C0103     1
 UP BOUND     C0104     1
 UP BOUND     C0105     1
 UP BOUND     C0106     1
 UP BOUND     C0107     1
 UP BOUND     C0108     1
 UP BOUND     C0109     1
 UP BOUND     C0110     1
 UP BOUND     C0111     1
 UP BOUND     C0112     1
 UP BOUND     C0113     1
 UP BOUND     C0114     1
 UP BOUND     C0115     1
 UP BOUND     C0116     1
 UP BOUND     C0117     1
 UP BOUND     C0118     1
 UP BOUND     C0119     1
 UP BOUND     C0120     1
 UP BOUND     C0121     1
 UP BOUND     C0122     1
 UP BOUND     C0123     1
 UP BOUND     C0124     1
 UP BOUND     C0125     1
 UP BOUND     C0126     1
ENDATA
